c description: Graph pigeonhole principle formula on fast_gnp_random_graph(10,20,0.9)
c generator: CNFgen (0.9.0)
c copyright: (C) 2012-2020 Massimo Lauria <massimo.lauria@uniroma1.it>
c url: https://massimolauria.net/cnfgen
c
p cnf 185 779
1 2 3 4 5 6 7 8 9 10 11 12 13 14 15 16 17 18 19 0
20 21 22 23 24 25 26 27 28 29 30 31 32 33 34 35 36 37 38 39 0
40 41 42 43 44 45 46 47 48 49 50 51 52 53 54 55 56 57 58 0
59 60 61 62 63 64 65 66 67 68 69 70 71 72 73 74 75 76 0
77 78 79 80 81 82 83 84 85 86 87 88 89 90 91 92 93 94 95 0
96 97 98 99 100 101 102 103 104 105 106 107 108 109 110 111 112 113 0
114 115 116 117 118 119 120 121 122 123 124 125 126 127 128 129 130 131 132 0
133 134 135 136 137 138 139 140 141 142 143 144 145 146 147 148 149 150 151 152 0
153 154 155 156 157 158 159 160 161 162 163 164 165 166 167 168 169 170 0
171 172 173 174 175 176 177 178 179 180 181 182 183 184 185 0
-1 -20 0
-1 -40 0
-1 -59 0
-1 -77 0
-1 -96 0
-1 -114 0
-1 -133 0
-1 -153 0
-20 -40 0
-20 -59 0
-20 -77 0
-20 -96 0
-20 -114 0
-20 -133 0
-20 -153 0
-40 -59 0
-40 -77 0
-40 -96 0
-40 -114 0
-40 -133 0
-40 -153 0
-59 -77 0
-59 -96 0
-59 -114 0
-59 -133 0
-59 -153 0
-77 -96 0
-77 -114 0
-77 -133 0
-77 -153 0
-96 -114 0
-96 -133 0
-96 -153 0
-114 -133 0
-114 -153 0
-133 -153 0
-2 -21 0
-2 -41 0
-2 -60 0
-2 -78 0
-2 -115 0
-2 -134 0
-2 -154 0
-2 -171 0
-21 -41 0
-21 -60 0
-21 -78 0
-21 -115 0
-21 -134 0
-21 -154 0
-21 -171 0
-41 -60 0
-41 -78 0
-41 -115 0
-41 -134 0
-41 -154 0
-41 -171 0
-60 -78 0
-60 -115 0
-60 -134 0
-60 -154 0
-60 -171 0
-78 -115 0
-78 -134 0
-78 -154 0
-78 -171 0
-115 -134 0
-115 -154 0
-115 -171 0
-134 -154 0
-134 -171 0
-154 -171 0
-3 -22 0
-3 -42 0
-3 -61 0
-3 -79 0
-3 -97 0
-3 -116 0
-3 -135 0
-3 -155 0
-3 -172 0
-22 -42 0
-22 -61 0
-22 -79 0
-22 -97 0
-22 -116 0
-22 -135 0
-22 -155 0
-22 -172 0
-42 -61 0
-42 -79 0
-42 -97 0
-42 -116 0
-42 -135 0
-42 -155 0
-42 -172 0
-61 -79 0
-61 -97 0
-61 -116 0
-61 -135 0
-61 -155 0
-61 -172 0
-79 -97 0
-79 -116 0
-79 -135 0
-79 -155 0
-79 -172 0
-97 -116 0
-97 -135 0
-97 -155 0
-97 -172 0
-116 -135 0
-116 -155 0
-116 -172 0
-135 -155 0
-135 -172 0
-155 -172 0
-4 -23 0
-4 -43 0
-4 -62 0
-4 -80 0
-4 -98 0
-4 -117 0
-4 -136 0
-4 -156 0
-4 -173 0
-23 -43 0
-23 -62 0
-23 -80 0
-23 -98 0
-23 -117 0
-23 -136 0
-23 -156 0
-23 -173 0
-43 -62 0
-43 -80 0
-43 -98 0
-43 -117 0
-43 -136 0
-43 -156 0
-43 -173 0
-62 -80 0
-62 -98 0
-62 -117 0
-62 -136 0
-62 -156 0
-62 -173 0
-80 -98 0
-80 -117 0
-80 -136 0
-80 -156 0
-80 -173 0
-98 -117 0
-98 -136 0
-98 -156 0
-98 -173 0
-117 -136 0
-117 -156 0
-117 -173 0
-136 -156 0
-136 -173 0
-156 -173 0
-5 -24 0
-5 -44 0
-5 -63 0
-5 -81 0
-5 -99 0
-5 -118 0
-5 -137 0
-5 -157 0
-5 -174 0
-24 -44 0
-24 -63 0
-24 -81 0
-24 -99 0
-24 -118 0
-24 -137 0
-24 -157 0
-24 -174 0
-44 -63 0
-44 -81 0
-44 -99 0
-44 -118 0
-44 -137 0
-44 -157 0
-44 -174 0
-63 -81 0
-63 -99 0
-63 -118 0
-63 -137 0
-63 -157 0
-63 -174 0
-81 -99 0
-81 -118 0
-81 -137 0
-81 -157 0
-81 -174 0
-99 -118 0
-99 -137 0
-99 -157 0
-99 -174 0
-118 -137 0
-118 -157 0
-118 -174 0
-137 -157 0
-137 -174 0
-157 -174 0
-6 -25 0
-6 -82 0
-6 -100 0
-6 -119 0
-6 -138 0
-6 -158 0
-6 -175 0
-25 -82 0
-25 -100 0
-25 -119 0
-25 -138 0
-25 -158 0
-25 -175 0
-82 -100 0
-82 -119 0
-82 -138 0
-82 -158 0
-82 -175 0
-100 -119 0
-100 -138 0
-100 -158 0
-100 -175 0
-119 -138 0
-119 -158 0
-119 -175 0
-138 -158 0
-138 -175 0
-158 -175 0
-7 -26 0
-7 -45 0
-7 -64 0
-7 -83 0
-7 -101 0
-7 -120 0
-7 -139 0
-7 -159 0
-7 -176 0
-26 -45 0
-26 -64 0
-26 -83 0
-26 -101 0
-26 -120 0
-26 -139 0
-26 -159 0
-26 -176 0
-45 -64 0
-45 -83 0
-45 -101 0
-45 -120 0
-45 -139 0
-45 -159 0
-45 -176 0
-64 -83 0
-64 -101 0
-64 -120 0
-64 -139 0
-64 -159 0
-64 -176 0
-83 -101 0
-83 -120 0
-83 -139 0
-83 -159 0
-83 -176 0
-101 -120 0
-101 -139 0
-101 -159 0
-101 -176 0
-120 -139 0
-120 -159 0
-120 -176 0
-139 -159 0
-139 -176 0
-159 -176 0
-8 -27 0
-8 -46 0
-8 -65 0
-8 -84 0
-8 -102 0
-8 -121 0
-8 -140 0
-8 -160 0
-8 -177 0
-27 -46 0
-27 -65 0
-27 -84 0
-27 -102 0
-27 -121 0
-27 -140 0
-27 -160 0
-27 -177 0
-46 -65 0
-46 -84 0
-46 -102 0
-46 -121 0
-46 -140 0
-46 -160 0
-46 -177 0
-65 -84 0
-65 -102 0
-65 -121 0
-65 -140 0
-65 -160 0
-65 -177 0
-84 -102 0
-84 -121 0
-84 -140 0
-84 -160 0
-84 -177 0
-102 -121 0
-102 -140 0
-102 -160 0
-102 -177 0
-121 -140 0
-121 -160 0
-121 -177 0
-140 -160 0
-140 -177 0
-160 -177 0
-9 -28 0
-9 -47 0
-9 -66 0
-9 -103 0
-9 -122 0
-9 -141 0
-9 -161 0
-28 -47 0
-28 -66 0
-28 -103 0
-28 -122 0
-28 -141 0
-28 -161 0
-47 -66 0
-47 -103 0
-47 -122 0
-47 -141 0
-47 -161 0
-66 -103 0
-66 -122 0
-66 -141 0
-66 -161 0
-103 -122 0
-103 -141 0
-103 -161 0
-122 -141 0
-122 -161 0
-141 -161 0
-10 -29 0
-10 -48 0
-10 -67 0
-10 -85 0
-10 -104 0
-10 -142 0
-10 -162 0
-10 -178 0
-29 -48 0
-29 -67 0
-29 -85 0
-29 -104 0
-29 -142 0
-29 -162 0
-29 -178 0
-48 -67 0
-48 -85 0
-48 -104 0
-48 -142 0
-48 -162 0
-48 -178 0
-67 -85 0
-67 -104 0
-67 -142 0
-67 -162 0
-67 -178 0
-85 -104 0
-85 -142 0
-85 -162 0
-85 -178 0
-104 -142 0
-104 -162 0
-104 -178 0
-142 -162 0
-142 -178 0
-162 -178 0
-11 -30 0
-11 -49 0
-11 -68 0
-11 -86 0
-11 -105 0
-11 -123 0
-11 -143 0
-11 -163 0
-11 -179 0
-30 -49 0
-30 -68 0
-30 -86 0
-30 -105 0
-30 -123 0
-30 -143 0
-30 -163 0
-30 -179 0
-49 -68 0
-49 -86 0
-49 -105 0
-49 -123 0
-49 -143 0
-49 -163 0
-49 -179 0
-68 -86 0
-68 -105 0
-68 -123 0
-68 -143 0
-68 -163 0
-68 -179 0
-86 -105 0
-86 -123 0
-86 -143 0
-86 -163 0
-86 -179 0
-105 -123 0
-105 -143 0
-105 -163 0
-105 -179 0
-123 -143 0
-123 -163 0
-123 -179 0
-143 -163 0
-143 -179 0
-163 -179 0
-12 -31 0
-12 -50 0
-12 -69 0
-12 -87 0
-12 -106 0
-12 -124 0
-12 -144 0
-12 -164 0
-12 -180 0
-31 -50 0
-31 -69 0
-31 -87 0
-31 -106 0
-31 -124 0
-31 -144 0
-31 -164 0
-31 -180 0
-50 -69 0
-50 -87 0
-50 -106 0
-50 -124 0
-50 -144 0
-50 -164 0
-50 -180 0
-69 -87 0
-69 -106 0
-69 -124 0
-69 -144 0
-69 -164 0
-69 -180 0
-87 -106 0
-87 -124 0
-87 -144 0
-87 -164 0
-87 -180 0
-106 -124 0
-106 -144 0
-106 -164 0
-106 -180 0
-124 -144 0
-124 -164 0
-124 -180 0
-144 -164 0
-144 -180 0
-164 -180 0
-13 -32 0
-13 -51 0
-13 -70 0
-13 -88 0
-13 -107 0
-13 -125 0
-13 -145 0
-13 -165 0
-32 -51 0
-32 -70 0
-32 -88 0
-32 -107 0
-32 -125 0
-32 -145 0
-32 -165 0
-51 -70 0
-51 -88 0
-51 -107 0
-51 -125 0
-51 -145 0
-51 -165 0
-70 -88 0
-70 -107 0
-70 -125 0
-70 -145 0
-70 -165 0
-88 -107 0
-88 -125 0
-88 -145 0
-88 -165 0
-107 -125 0
-107 -145 0
-107 -165 0
-125 -145 0
-125 -165 0
-145 -165 0
-14 -33 0
-14 -52 0
-14 -71 0
-14 -89 0
-14 -108 0
-14 -126 0
-14 -146 0
-33 -52 0
-33 -71 0
-33 -89 0
-33 -108 0
-33 -126 0
-33 -146 0
-52 -71 0
-52 -89 0
-52 -108 0
-52 -126 0
-52 -146 0
-71 -89 0
-71 -108 0
-71 -126 0
-71 -146 0
-89 -108 0
-89 -126 0
-89 -146 0
-108 -126 0
-108 -146 0
-126 -146 0
-15 -34 0
-15 -53 0
-15 -72 0
-15 -90 0
-15 -109 0
-15 -127 0
-15 -147 0
-15 -166 0
-15 -181 0
-34 -53 0
-34 -72 0
-34 -90 0
-34 -109 0
-34 -127 0
-34 -147 0
-34 -166 0
-34 -181 0
-53 -72 0
-53 -90 0
-53 -109 0
-53 -127 0
-53 -147 0
-53 -166 0
-53 -181 0
-72 -90 0
-72 -109 0
-72 -127 0
-72 -147 0
-72 -166 0
-72 -181 0
-90 -109 0
-90 -127 0
-90 -147 0
-90 -166 0
-90 -181 0
-109 -127 0
-109 -147 0
-109 -166 0
-109 -181 0
-127 -147 0
-127 -166 0
-127 -181 0
-147 -166 0
-147 -181 0
-166 -181 0
-35 -54 0
-35 -73 0
-35 -91 0
-35 -110 0
-35 -128 0
-35 -148 0
-35 -182 0
-54 -73 0
-54 -91 0
-54 -110 0
-54 -128 0
-54 -148 0
-54 -182 0
-73 -91 0
-73 -110 0
-73 -128 0
-73 -148 0
-73 -182 0
-91 -110 0
-91 -128 0
-91 -148 0
-91 -182 0
-110 -128 0
-110 -148 0
-110 -182 0
-128 -148 0
-128 -182 0
-148 -182 0
-16 -36 0
-16 -55 0
-16 -74 0
-16 -92 0
-16 -111 0
-16 -129 0
-16 -149 0
-16 -167 0
-16 -183 0
-36 -55 0
-36 -74 0
-36 -92 0
-36 -111 0
-36 -129 0
-36 -149 0
-36 -167 0
-36 -183 0
-55 -74 0
-55 -92 0
-55 -111 0
-55 -129 0
-55 -149 0
-55 -167 0
-55 -183 0
-74 -92 0
-74 -111 0
-74 -129 0
-74 -149 0
-74 -167 0
-74 -183 0
-92 -111 0
-92 -129 0
-92 -149 0
-92 -167 0
-92 -183 0
-111 -129 0
-111 -149 0
-111 -167 0
-111 -183 0
-129 -149 0
-129 -167 0
-129 -183 0
-149 -167 0
-149 -183 0
-167 -183 0
-17 -37 0
-17 -56 0
-17 -93 0
-17 -112 0
-17 -130 0
-17 -150 0
-17 -168 0
-17 -184 0
-37 -56 0
-37 -93 0
-37 -112 0
-37 -130 0
-37 -150 0
-37 -168 0
-37 -184 0
-56 -93 0
-56 -112 0
-56 -130 0
-56 -150 0
-56 -168 0
-56 -184 0
-93 -112 0
-93 -130 0
-93 -150 0
-93 -168 0
-93 -184 0
-112 -130 0
-112 -150 0
-112 -168 0
-112 -184 0
-130 -150 0
-130 -168 0
-130 -184 0
-150 -168 0
-150 -184 0
-168 -184 0
-18 -38 0
-18 -57 0
-18 -75 0
-18 -94 0
-18 -113 0
-18 -131 0
-18 -151 0
-18 -169 0
-38 -57 0
-38 -75 0
-38 -94 0
-38 -113 0
-38 -131 0
-38 -151 0
-38 -169 0
-57 -75 0
-57 -94 0
-57 -113 0
-57 -131 0
-57 -151 0
-57 -169 0
-75 -94 0
-75 -113 0
-75 -131 0
-75 -151 0
-75 -169 0
-94 -113 0
-94 -131 0
-94 -151 0
-94 -169 0
-113 -131 0
-113 -151 0
-113 -169 0
-131 -151 0
-131 -169 0
-151 -169 0
-19 -39 0
-19 -58 0
-19 -76 0
-19 -95 0
-19 -132 0
-19 -152 0
-19 -170 0
-19 -185 0
-39 -58 0
-39 -76 0
-39 -95 0
-39 -132 0
-39 -152 0
-39 -170 0
-39 -185 0
-58 -76 0
-58 -95 0
-58 -132 0
-58 -152 0
-58 -170 0
-58 -185 0
-76 -95 0
-76 -132 0
-76 -152 0
-76 -170 0
-76 -185 0
-95 -132 0
-95 -152 0
-95 -170 0
-95 -185 0
-132 -152 0
-132 -170 0
-132 -185 0
-152 -170 0
-152 -185 0
-170 -185 0